data/solutions/recovery/wellformed/intermediate/binding/wellformed_intermediate_instance73/20.sol
Elapsed time: 0.05
Upper bound: 4562.0
Planning weighted value: 206280407.0
C[0]=4562.0
C[1]=4518.0
C[2]=4370.0
C[3]=4331.0
C[4]=4235.0
C[5]=3986.0
C[6]=3984.0
C[7]=3870.0
C[8]=3682.0
C[9]=3470.0
C[10]=3091.0
C[11]=3089.0
C[12]=2733.0
C[13]=2474.0
C[14]=2167.0
C[15]=0.0
y[0]=0
y[1]=6
y[2]=11
y[3]=4
y[4]=6
y[5]=11
y[6]=5
y[7]=13
y[8]=1
y[9]=7
y[10]=1
y[11]=14
y[12]=3
y[13]=9
y[14]=10
y[15]=1
y[16]=1
y[17]=1
y[18]=13
y[19]=14
y[20]=11
y[21]=0
y[22]=13
y[23]=14
y[24]=8
y[25]=0
y[26]=1
y[27]=3
y[28]=14
y[29]=13
y[30]=12
y[31]=2
y[32]=2
y[33]=7
y[34]=10
y[35]=1
y[36]=12
y[37]=7
y[38]=2
y[39]=0
y[40]=13
y[41]=8
y[42]=8
y[43]=6
y[44]=12
y[45]=0
y[46]=10
y[47]=8
y[48]=7
y[49]=12
y[50]=3
y[51]=4
y[52]=8
y[53]=12
y[54]=7
y[55]=4
y[56]=3
y[57]=5
y[58]=13
y[59]=6
y[60]=6
y[61]=2
y[62]=5
y[63]=14
y[64]=2
y[65]=0
y[66]=10
y[67]=1
y[68]=9
y[69]=9
y[70]=1
y[71]=2
y[72]=14
y[73]=8
y[74]=9
y[75]=5
y[76]=4
y[77]=0
y[78]=0
y[79]=5
y[80]=13
y[81]=3
y[82]=4
y[83]=9
y[84]=11
y[85]=10
y[86]=9
y[87]=10
y[88]=4
y[89]=5
y[90]=7
y[91]=0
y[92]=7
y[93]=6
y[94]=7
y[95]=8
y[96]=11
y[97]=5
y[98]=4
y[99]=0
y[100]=5
y[101]=1
y[102]=4
y[103]=7
y[104]=9
y[105]=2
y[106]=8
y[107]=3
