data/solutions/recovery/wellformed/intermediate/binding/wellformed_intermediate_instance73/20.log

Log started (V12.6.3.0) Fri Apr 20 17:50:08 2018

New value for default parallel thread count: 1

Problem '/tmp/tmpprgyGv.pyomo.lp' read.
Read time = 0.03 sec. (2.16 ticks)

Problem name         : /tmp/tmpprgyGv.pyomo.lp
Objective sense      : Minimize
Variables            :    1746  [Nneg: 1,  Binary: 1728,  General Integer: 17]
Objective nonzeros   :       1
Linear constraints   :     250  [Less: 124,  Equal: 126]
  Nonzeros           :  157417
  RHS nonzeros       :     109

Variables            : Min LB: 0.000000         Max UB: 1.000000       
Objective nonzeros   : Min   : 1.000000         Max   : 1.000000       
Linear constraints   :
  Nonzeros           : Min   : 1.000000         Max   : 1715.000       
  RHS nonzeros       : Min   : 1.000000         Max   : 1.000000       
Tried aggregator 2 times.
MIP Presolve eliminated 209 rows and 1565 columns.
Aggregator did 15 substitutions.
Reduced MIP has 26 rows, 166 columns, and 345 nonzeros.
Reduced MIP has 165 binaries, 1 generals, 0 SOSs, and 0 indicators.
Presolve time = 0.01 sec. (10.15 ticks)
Found incumbent of value 15472.000000 after 0.01 sec. (13.91 ticks)
Probing time = 0.00 sec. (0.21 ticks)
Tried aggregator 1 time.
Reduced MIP has 26 rows, 166 columns, and 345 nonzeros.
Reduced MIP has 165 binaries, 1 generals, 0 SOSs, and 0 indicators.
Presolve time = 0.00 sec. (0.28 ticks)
Probing time = 0.00 sec. (0.21 ticks)
Clique table members: 11.
MIP emphasis: balance optimality and feasibility.
MIP search method: dynamic search.
Parallel mode: none, using 1 thread.
Root relaxation solution time = 0.00 sec. (0.15 ticks)

        Nodes                                         Cuts/
   Node  Left     Objective  IInf  Best Integer    Best Bound    ItCnt     Gap

*     0+    0                        15472.0000     4562.0000            70.51%
      0     0     4562.0000    12    15472.0000     4562.0000       23   70.51%
*     0+    0                         4562.0000     4562.0000             0.00%
      0     0        cutoff           4562.0000     4562.0000       23    0.00%
Elapsed time = 0.01 sec. (15.06 ticks, tree = 0.01 MB, solutions = 2)

Root node processing (before b&c):
  Real time             =    0.01 sec. (15.12 ticks)
Sequential b&c:
  Real time             =    0.00 sec. (0.00 ticks)
                          ------------
Total (root+branch&cut) =    0.01 sec. (15.12 ticks)

Solution pool: 2 solutions saved.

MIP - Integer optimal solution:  Objective =  4.5620000000e+03
Solution time =    0.01 sec.  Iterations = 23  Nodes = 0
Deterministic time = 15.13 ticks  (1053.13 ticks/sec)


Incumbent solution written to file '/tmp/tmpsVF25E.cplex.sol'.

Log started (V12.6.3.0) Fri Apr 20 17:53:10 2018

New value for default parallel thread count: 1

Problem '/tmp/tmppsgbxl.pyomo.lp' read.
Read time = 0.03 sec. (2.16 ticks)

Problem name         : /tmp/tmppsgbxl.pyomo.lp
Objective sense      : Minimize
Variables            :    1746  [Nneg: 1,  Binary: 1728,  General Integer: 17]
Objective nonzeros   :       1
Linear constraints   :     250  [Less: 124,  Equal: 126]
  Nonzeros           :  157417
  RHS nonzeros       :     109

Variables            : Min LB: 0.000000         Max UB: 1.000000       
Objective nonzeros   : Min   : 1.000000         Max   : 1.000000       
Linear constraints   :
  Nonzeros           : Min   : 1.000000         Max   : 1715.000       
  RHS nonzeros       : Min   : 1.000000         Max   : 1.000000       
Tried aggregator 2 times.
MIP Presolve eliminated 209 rows and 1565 columns.
Aggregator did 15 substitutions.
Reduced MIP has 26 rows, 166 columns, and 345 nonzeros.
Reduced MIP has 165 binaries, 1 generals, 0 SOSs, and 0 indicators.
Presolve time = 0.01 sec. (10.15 ticks)
Found incumbent of value 15472.000000 after 0.01 sec. (13.91 ticks)
Probing time = 0.00 sec. (0.21 ticks)
Tried aggregator 1 time.
Reduced MIP has 26 rows, 166 columns, and 345 nonzeros.
Reduced MIP has 165 binaries, 1 generals, 0 SOSs, and 0 indicators.
Presolve time = 0.00 sec. (0.28 ticks)
Probing time = 0.00 sec. (0.21 ticks)
Clique table members: 11.
MIP emphasis: balance optimality and feasibility.
MIP search method: dynamic search.
Parallel mode: none, using 1 thread.
Root relaxation solution time = 0.00 sec. (0.15 ticks)

        Nodes                                         Cuts/
   Node  Left     Objective  IInf  Best Integer    Best Bound    ItCnt     Gap

*     0+    0                        15472.0000     4562.0000            70.51%
      0     0     4562.0000    12    15472.0000     4562.0000       23   70.51%
*     0+    0                         4562.0000     4562.0000             0.00%
      0     0        cutoff           4562.0000     4562.0000       23    0.00%
Elapsed time = 0.01 sec. (15.06 ticks, tree = 0.01 MB, solutions = 2)

Root node processing (before b&c):
  Real time             =    0.01 sec. (15.12 ticks)
Sequential b&c:
  Real time             =    0.00 sec. (0.00 ticks)
                          ------------
Total (root+branch&cut) =    0.01 sec. (15.12 ticks)

Solution pool: 2 solutions saved.

MIP - Integer optimal solution:  Objective =  4.5620000000e+03
Solution time =    0.01 sec.  Iterations = 23  Nodes = 0
Deterministic time = 15.13 ticks  (1110.90 ticks/sec)


Incumbent solution written to file '/tmp/tmpusK1EC.cplex.sol'.
